12	14	16	1	14	19	14	14	12	19	19	12	13	6	12	2	18	14	11	9	13	18	16	12	18	10	19	20	9	3	3	18	2	12	14	12	16	12	7	17	4	15	18	18	12	1	7	7	18	2
11	9	12	3	2	5	6	16	9	20	20	4	19	8	16	3	13	2	13	14	11	4	20	17	6	17	4	5	1	13	12	18	4	17	1	3	19	8	7	4	11	19	17	4	9	5	17	16	9	12
15	8	6	19	15	4	5	11	13	15	7	8	17	19	11	10	9	9	17	15	18	4	6	18	18	20	12	5	8	12	15	1	9	15	15	19	12	7	15	10	7	8	11	13	5	13	5	4	18	12
7	8	11	15	19	4	2	7	18	2	18	3	19	11	7	16	1	11	14	12	13	19	18	13	6	1	10	2	17	18	15	7	18	9	15	4	17	17	3	2	6	4	19	7	19	10	9	11	19	5
